; sanic :: corpus-study/repo_src/sanic/sanic/server/websockets/frame.py :: LOCK 'WebsocketFrameAssembler.read_mutex' :: naive encoding (verdict: sat)
; Generated by snf-pipeline (encoder.py) -- run with any
; SMT-LIB2-compliant solver, e.g. `z3 sanic__corpus-study_repo_src_sanic_sanic_server_websockets_frame.py__WebsocketFrameAssembler.read_mutex__naive.smt2`
; benchmark generated from python API
(set-info :status unknown)
(declare-fun holds_1 () Bool)
(declare-fun holds_0 () Bool)
(assert
 (or (and holds_0 holds_1)))
(check-sat)
